c --- [ banner ] -------------------------------------------------------------
c 
c CaDiCaL SAT Solver
c Copyright (c) 2016-2025
c A. Biere, M. Fleury, N. Froleyks, K. Fazekas, F. Pollitt, T. Faller
c JKU Linz, University of Freiburg, TU Wien
c 
c Version 3.0.0 7b99c07f0bcab5824a5a3ce62c7066554017f641
c Apple clang version 21.0.0 (clang-2100.0.123.102) -Wall -Wextra -O3 -DNDEBUG -DNCLOSEFROM
c Thu Apr 23 22:35:47 PDT 2026 Darwin dada-mun-26.local 25.4.0 arm64
c 
c --- [ limit ] --------------------------------------------------------------
c 
c setting time limit to 180 seconds real time (due to '-t 180')
c 
c --- [ parsing input ] ------------------------------------------------------
c 
c reading DIMACS file from '/private/tmp/p97-ordinal-sharesSecondAtTarget.cnf'
c opening file to read '/private/tmp/p97-ordinal-sharesSecondAtTarget.cnf'
c found 'p cnf 58048 313821' header
c parsed 313821 clauses in 0.06 seconds process time
c 
c --- [ options ] ------------------------------------------------------------
c 
c   --compact=false                (different from default 'true')
c   --congruence=false             (different from default 'true')
c   --decompose=false              (different from default 'true')
c   --deduplicate=false            (different from default 'true')
c   --eagersubsume=false           (different from default 'true')
c   --elim=false                   (different from default 'true')
c   --factor=false                 (different from default 'true')
c   --factorunbump=false           (different from default 'true')
c   --fastelim=false               (different from default 'true')
c   --inprobing=false              (different from default 'true')
c   --inprocessing=false           (different from default 'true')
c   --preprocesslight=false        (different from default 'true')
c   --probe=false                  (different from default 'true')
c   --subsume=false                (different from default 'true')
c   --sweep=false                  (different from default 'true')
c   --ternary=false                (different from default 'true')
c   --transred=false               (different from default 'true')
c   --vivify=false                 (different from default 'true')
c 
c --- [ solving ] ------------------------------------------------------------
c 
c time measured in process time since initialization
c 
c  seconds  reduction conflicts       size tier2        variables
c         MB    restarts   redundant    glue  trail          remaining
c          level     rate       size/glu tier1  irredundant
c 
c *  0.06  0  0 0   0  0    0    0 0.0 0 0 2 6  0% 313029 57408 99%
c )  0.06  0  0 0   0  0    0    0 0.0 0 0 2 6  0% 313029 57408 99%
c {  0.06  0  0 0   0  0    0    0 0.0 0 0 2 6  0% 313029 57408 99%
c i  0.06  0  8 0   0  3    5    4 2.3 2 1 2 6  1% 313029 57406 99%
c i  0.06  0 10 0   0  3   10    7 2.3 2 1 2 6  2% 313029 57179 99%
c i  0.06  0 12 0   0  3   19   15 2.1 2 1 2 6  2% 313029 57057 98%
c i  0.06  0 59 0   0  6   69   63 1.9 2 1 2 6  6% 313029 57056 98%
c i  0.06  0 55 0   3  6   85   76 1.9 3 1 2 6  6% 313029 56889 98%
c i  0.06  0 56 0   6  9   96   85 1.9 3 2 2 6  6% 313029 56885 98%
c i  0.07  0 85 0   9 17  112  100 1.5 4 3 2 6  6% 313029 56884 98%
c i  0.07  0 154 0  30 33  192  168 1.5 5 3 2 6  8% 313029 56883 98%
c i  0.07  0 134 0  43 29  243  215 1.4 6 4 2 6  8% 313029 56882 98%
c i  0.07  0 133 0  44 29  244  215 1.4 6 4 2 6  8% 313029 56878 98%
c -  0.11  0 706 1  57 186  300  208 1.4 6 4 2 6 12% 307366 56878 98%
c i  0.17  0 349 1 132 82  792  622 1.6 9 5 2 6 18% 307366 56877 98%
c i  0.18  0 333 1 142 78  852  671 1.6 9 5 2 6 19% 307366 56871 98%
c -  0.22  0 309 2 149 71  946  568 1.6 9 5 2 6 19% 307323 56871 98%
c }  0.22  0 299 2 149 67 1004  606 1.6 9 5 2 6 19% 307323 56871 98%
c [  0.22  0  0 2 149  0 1004  606 0.0 0 0 2 6  0% 307323 56871 98%
c O  0.22  0 28 2 149 29 1005  607 1.1 15 14 2 6  6% 307323 56871 98%
c 
c  seconds  reduction conflicts       size   tier2        variables
c         MB    restarts   redundant     glue   trail          remaining
c          level     rate       size/glue  tier1  irredundant
c 
c i  0.22  0 36 2 149  4 1034  633 1.3 14 10 2 6  7% 307323 56870 98%
c ]  0.33  0 68 2 149  2 1441 1029 3.0 32 11 2 6 24% 307323 56870 98%
c {  0.33  0 299 2 149 67 1441 1029 1.6 9 5 2 6 19% 307323 56870 98%
c i  0.34  0 291 2 156 66 1475 1060 1.7 9 6 2 6 19% 307323 56869 98%
c i  0.38  0 230 2 176 48 1912 1416 1.7 9 5 2 6 20% 307323 56860 98%
c -  0.41  0 216 3 187 44 2090 1162 1.7 9 5 2 6 21% 307264 56860 98%
c i  0.42  0 206 3 192 42 2212 1248 1.7 9 5 2 6 20% 307264 56859 98%
c i  0.43  0 202 3 197 40 2290 1313 1.7 9 5 2 6 20% 307264 56858 98%
c O  0.48  0 178 3 240 31 3006 1919 1.8 10 5 2 6 21% 307264 56858 98%
c i  0.49  0 177 3 250 31 3049 1951 1.8 10 5 2 6 21% 307264 56856 98%
c -  0.57  0 160 4 272 26 3788 2088 1.8 10 5 2 6 21% 307230 56854 98%
c i  0.65  0 145 4 339 22 4772 2933 1.8 10 5 2 6 21% 307230 56846 98%
c #  0.75  0 136 4 438 20 6007 3912 1.8 10 5 2 3 21% 307230 56845 98%
c -  0.78  0 136 5 446 20 6076 2678 1.8 10 5 2 3 21% 307184 56845 98%
c }  0.86  0 132 5 509 19 6776 3281 1.8 10 5 2 3 21% 307184 56845 98%
c [  0.86  0 68 5 509  2 6776 3281 3.0 32 11 2 6 24% 307184 56845 98%
c -  1.04  0 104 6 511  3 8974 3515 2.2 24 11 4 12 33% 307184 56845 98%
c i  1.08  0 102 6 511  3 9299 3828 2.2 24 11 4 11 34% 307184 56844 98%
c I  1.14  0 103 6 511  3 10008 4506 2.1 24 12 4 11 35% 307184 56844 98%
c ]  1.38  0 93 6 513  3 11984 6312 2.2 27 12 4 11 32% 307184 56844 98%
c 
c  seconds   reductions conflicts       size  tier2        variables
c         MB     restarts    redundant     glue  trail          remaining
c           level     rate        size/glue tier1  irredundant
c 
c {  1.38  0 132 6 513 19 11984 6312 1.8 10 5 2 3 21% 307184 56844 98%
c -  1.46  0 129 7 558 19 12496 4383 1.8 10 5 2 3 21% 307175 56844 98%
c B  1.75  0 125 7 791 17 15010 6554 1.8 10 5 2 3 22% 307175 56844 98%
c -  1.96  0 122 8 914 17 16651 5726 1.8 10 5 2 3 22% 307175 56844 98%
c i  2.03  0 122 8 961 17 17063 6075 1.8 10 6 2 3 22% 307175 56843 98%
c i  2.06  0 121 8 995 17 17337 6325 1.8 10 6 2 3 22% 307175 56842 98%
c }  2.49  0 120 8 1321 16 21013 9556 1.8 10 6 2 3 23% 307175 56842 98%
c [  2.49  0 93 8 1321  3 21013 9556 2.2 27 12 4 11 32% 307175 56842 98%
c B  2.49  0 93 8 1321  3 21014 9557 2.2 27 12 4 11 32% 307175 56842 98%
c -  2.56  0 95 9 1321  3 21447 7440 2.1 26 12 3 10 32% 307156 56842 98%
c i  2.56  0 95 9 1321  3 21457 7448 2.1 26 12 3 10 32% 307156 56841 98%
c -  3.20  0 81 10 1323  3 26895 8520 2.0 27 14 3 10 29% 307150 56841 98%
c W  3.42  0 77 10 1323  2 28015 9604 2.1 28 14 3 10 28% 307150 56841 98%
c i  3.64  0 75 10 1325  2 30553 12004 2.1 28 14 3 10 28% 307150 56838 98%
c ]  3.69  0 74 10 1326  2 31144 12582 2.0 28 14 3 10 27% 307150 56837 98%
c {  3.69  0 120 10 1326 16 31144 12582 1.8 10 6 2 3 23% 307150 56837 98%
c -  3.97  0 119 11 1512 16 32991 9644 1.8 10 6 2 3 23% 307131 56837 98%
c i  4.14  0 119 11 1624 15 34196 10707 1.8 10 6 2 3 23% 307131 56836 98%
c W  4.41  0 117 11 1809 15 36017 12319 1.8 10 6 2 3 23% 307125 56836 98%
c i  4.44  0 117 11 1828 15 36169 12458 1.8 10 6 2 3 23% 307125 56835 98%
c 
c  seconds   reductions   conflicts       size  tier2        variables
c         MB      restarts     redundant     glue  trail          remaining
c           level       rate        size/glue tier1  irredundant
c 
c -  4.93  0 115 12 2147 15 39745 8819 1.8 10 6 1 2 23% 307116 56835 98%
c F  5.60  0 113 12 2682 15 45018 13541 1.8 11 6 1 2 24% 307116 56835 98%
c }  5.72  0 113 12 2748 14 45939 14361 1.8 11 6 1 2 24% 307116 56835 98%
c [  5.72  0 74 12 2748  2 45939 14361 2.0 28 14 3 10 27% 307116 56835 98%
c -  5.86  0 74 13 2748  2 47158 9684 2.0 28 14 3 10 27% 307116 56835 98%
c O  6.69  0 68 13 2752  2 55020 17251 2.2 29 13 3 10 27% 307116 56835 98%
c -  6.74  0 68 14 2752  2 55232 10346 2.2 29 13 3 10 27% 307116 56835 98%
c ]  7.66  0 61 14 2753  2 63751 18546 2.4 33 14 3 10 27% 307116 56835 98%
c {  7.66  0 113 14 2753 14 63751 18546 1.8 11 6 1 2 24% 307116 56835 98%
c i  7.68  0 113 14 2767 14 63880 18652 1.8 11 6 1 2 24% 307116 56833 98%
c -  7.72  0 113 15 2767 14 63969 10494 1.8 11 6 1 2 24% 307103 56832 98%
c B  8.01  0 112 15 2956 14 66021 12341 1.8 11 6 1 2 24% 307103 56832 98%
c -  9.03  0 109 16 3765 14 73373 12124 1.8 11 6 1 2 24% 307103 56832 98%
c W  9.81  0 108 16 4151 14 78022 16287 1.8 11 6 1 2 24% 307103 56832 98%
c - 10.62  0 107 17 4734 14 83445 14090 1.8 11 6 1 2 25% 307103 56832 98%
c } 10.93  0 106 17 4925 13 85855 16220 1.9 11 6 1 2 25% 307103 56832 98%
c [ 10.93  0 61 17 4925  2 85855 16220 2.4 33 14 3 10 27% 307103 56832 98%
c B 11.57  0 65 17 4929  2 91024 21226 2.3 32 14 3 10 27% 307103 56832 98%
c i 11.81  0 64 17 4930  2 92894 23025 2.3 32 14 3 10 27% 307103 56831 98%
c - 12.02  0 64 18 4931  2 94186 15220 2.3 32 14 3 10 27% 307097 56831 98%
c 
c  seconds  reductions   conflicts         size   tier2         variables
c         MB     restarts       redundant     glue    trail          remaining
c          level       rate          size/glue  tier1   irredundant
c 
c W 13.81  0 58 18 4937  2 105025 25626 2.3 33 15 3 10 25% 307097 56831 98%
c - 13.93  0 58 19 4937  2 105596 15466 2.3 33 15 3 10 25% 307097 56831 98%
c ] 14.07  0 58 19 4938  2 106484 16309 2.2 33 15 3 10 25% 307097 56831 98%
c { 14.07  0 106 19 4938 13 106484 16309 1.9 11 6 1 2 25% 307097 56831 98%
c - 15.73  0 105 20 6086 13 117677 17178 1.9 11 6 1 2 25% 307097 56831 98%
c # 16.05  0 104 20 6311 13 120026 19339 1.9 11 6 1 2 25% 307097 56831 98%
c - 17.65  0 102 21 7381 13 130431 19490 1.9 12 6 1 2 25% 307097 56831 98%
c B 18.43  0 101 21 7877 13 136027 24601 1.9 12 6 1 2 25% 307097 56831 98%
c } 18.49  0 101 21 7928 13 136456 24989 1.9 12 6 1 2 25% 307097 56831 98%
c [ 18.49  0 58 21 7928  2 136456 24989 2.2 33 15 3 10 25% 307097 56831 98%
c i 18.75  0 60 21 7929  2 138916 27382 2.2 33 15 3 10 25% 307097 56828 98%
c - 19.33  0 59 22 7930  2 143858 20910 2.2 32 14 3 10 26% 307084 56828 98%
c I 20.71  0 58 22 7931  2 153028 29845 2.2 34 15 3 10 25% 307084 56828 98%
c - 21.59  0 58 23 7931  2 157960 21185 2.2 34 16 3 10 26% 307084 56828 98%
c ] 22.86  0 58 23 7931  2 165153 28185 2.2 36 16 3 10 26% 307084 56828 98%
c { 22.86  0 101 23 7931 13 165153 28185 1.9 12 6 1 2 25% 307084 56828 98%
c W 24.11  0 101 23 8524 13 171029 33535 1.9 12 6 1 2 25% 307084 56828 98%
c - 24.39  0 100 24 8676 13 172740 21790 1.9 12 6 1 2 25% 307084 56828 98%
c - 26.79  0 98 25 10230 13 188192 24211 1.9 12 6 1 2 26% 307084 56828 98%
c F 27.06  0 98 25 10386 12 190030 25884 1.9 12 6 1 2 26% 307084 56828 98%
c 
c  seconds  reductions    conflicts         size  tier2        variables
c         MB      restarts       redundant     glue  trail          remaining
c          level        rate          size/glue tier1  irredundant
c 
c - 29.32  0 96 26 11968 12 204321 26843 1.9 12 6 1 2 25% 307084 56828 98%
c } 29.45  0 96 26 12047 12 205135 27618 1.9 12 6 1 2 25% 307084 56828 98%
c [ 29.45  0 58 26 12047  2 205135 27618 2.2 36 16 3 10 26% 307084 56828 98%
c B 29.92  0 58 26 12050  2 210032 32352 2.2 36 16 3 10 26% 307084 56828 98%
c - 31.72  0 57 27 12056  2 221130 27859 2.2 37 17 3 10 25% 307084 56828 98%
c W 33.69  0 55 27 12061  2 231034 37506 2.3 38 17 3 10 25% 307084 56828 98%
c - 34.95  0 54 28 12062  2 238615 27271 2.2 38 17 3 10 25% 307084 56828 98%
c ] 35.69  0 53 28 12065  2 245121 33636 2.2 38 17 3 10 25% 307084 56828 98%
c { 35.69  0 96 28 12065 12 245121 33636 1.9 12 6 1 2 25% 307084 56828 98%
c B 36.98  0 96 28 12875 12 253035 40925 1.9 12 6 1 2 26% 307084 56828 98%
c - 37.60  0 96 29 13251 12 256778 28940 1.9 12 6 1 2 26% 307084 56828 98%
c i 40.17  0 95 29 14894 12 272333 43319 1.9 13 7 1 2 26% 307084 56827 98%
c - 40.78  0 95 30 15289 12 275618 31951 1.9 13 7 1 2 26% 307078 56827 98%
c W 41.11  0 95 30 15355 12 276036 32333 1.9 13 7 1 2 26% 307078 56827 98%
c - 44.17  0 93 31 17246 12 295136 34490 1.9 13 7 1 2 26% 307078 56827 98%
c } 44.21  0 93 31 17257 12 295363 34699 1.9 13 7 1 2 26% 307078 56827 98%
c [ 44.21  0 53 31 17257  2 295363 34699 2.2 38 17 3 10 25% 307078 56827 98%
c O 44.79  0 52 31 17261  2 300038 39252 2.2 38 17 3 10 25% 307078 56827 98%
c - 46.94  0 51 32 17268  2 315335 35573 2.2 38 17 3 10 25% 307078 56827 98%
c B 48.37  0 50 32 17270  2 325040 45056 2.1 38 18 3 10 25% 307078 56827 98%
c 
c  seconds  reductions    conflicts         size   tier2        variables
c         MB      restarts       redundant     glue   trail          remaining
c          level        rate          size/glue  tier1  irredundant
c 
c - 50.09  0 49 33 17270  2 336217 34545 2.1 39 18 2 6 25% 307078 56827 98%
c ] 52.43  0 47 33 17271  2 349925 47926 2.1 40 19 2 6 26% 307078 56827 98%
c { 52.43  0 93 33 17271 12 349925 47926 1.9 13 7 1 2 26% 307078 56827 98%
c # 52.63  0 93 33 17376 12 351041 48955 1.9 13 7 1 2 26% 307078 56827 98%
c - 53.82  0 93 34 18022 12 357779 35488 1.9 13 7 1 2 26% 307078 56827 98%
c i 56.65  0 92 34 19935 12 375541 51927 1.9 13 7 1 2 26% 307078 56826 98%
c B 57.06  0 92 34 20215 12 378042 54237 1.9 13 7 1 2 26% 307078 56826 98%
c - 57.43  0 92 35 20425 12 380017 38680 1.9 13 7 1 2 26% 307072 56826 98%
c - 61.07  0 91 36 22659 12 402937 41825 1.9 13 7 1 2 26% 307072 56826 98%
c W 62.23  0 91 36 22900 12 406044 44733 1.9 13 7 1 2 26% 307072 56826 98%
c } 63.56  0 91 36 23777 11 414791 52911 2.0 13 7 1 2 26% 307072 56826 98%
c [ 63.56  0 47 36 23777  2 414791 52911 2.1 40 19 2 6 26% 307072 56826 98%
c - 64.97  0 50 37 23777  2 426540 44092 2.1 39 18 2 6 26% 307072 56826 98%
c W 66.08  0 50 37 23777  2 435045 52354 2.1 39 18 2 6 25% 307072 56826 98%
c - 68.51  0 49 38 23784  2 450824 44817 2.1 39 19 2 6 25% 307072 56826 98%
c I 70.64  0 49 38 23791  2 465046 58643 2.1 38 18 2 7 25% 307072 56826 98%
c - 72.09  0 49 39 23794  2 475787 44738 2.1 38 18 2 7 25% 307072 56826 98%
c ] 74.03  0 48 39 23801  2 488520 57146 2.1 39 18 2 7 25% 307072 56826 98%
c { 74.03  0 91 39 23801 11 488520 57146 2.0 13 7 1 2 26% 307072 56826 98%
c F 75.26  0 90 39 24535 11 496047 64161 2.0 13 7 1 2 26% 307072 56826 98%
c 
c  seconds  reductions    conflicts         size  tier2        variables
c         MB      restarts       redundant     glue  trail          remaining
c          level        rate          size/glue tier1  irredundant
c 
c - 76.24  0 90 40 24973 11 501434 46779 2.0 13 7 1 2 27% 307072 56826 98%
c - 81.74  0 90 41 27583 11 527763 49976 2.0 14 7 1 2 27% 307072 56826 98%
c B 81.79  0 90 41 27592 11 528048 50245 2.0 14 7 1 2 27% 307072 56826 98%
c i 85.69  0 90 41 29405 11 548650 69493 2.0 14 7 1 2 27% 307072 56822 98%
c - 87.07  0 90 42 30039 11 554776 53261 2.0 14 7 1 2 27% 307052 56822 98%
c W 88.86  0 90 42 30596 11 561049 59117 2.0 14 7 1 2 27% 307052 56822 98%
c } 89.72  0 90 42 31067 11 565696 63440 2.0 14 7 1 2 27% 307052 56822 98%
c [ 89.72  0 48 42 31067  2 565696 63440 2.1 39 18 2 7 25% 307052 56822 98%
c - 92.71  0 50 43 31073  2 582467 55187 2.1 39 19 2 7 25% 307052 56822 98%
c B 95.32  0 48 43 31074  2 595050 67474 2.1 39 19 2 7 25% 307052 56822 98%
c - 98.15  0 48 44 31081  2 610841 55056 2.1 40 19 2 7 25% 307052 56822 98%
c W 102.12  0 47 44 31089  2 630052 73846 2.1 41 19 2 7 25% 307052 56822 98%
c ] 103.75  0 46 44 31092  2 638982 82559 2.1 41 19 2 7 25% 307052 56822 98%
c { 103.75  0 90 44 31092 11 638982 82559 2.0 14 7 1 2 27% 307052 56822 98%
c - 104.00  0 90 45 31197 11 639901 54245 2.0 14 7 1 2 27% 307052 56822 98%
c # 109.09  0 88 45 33568 11 666054 78687 2.0 14 7 1 2 27% 307052 56822 98%
c - 109.89  0 88 46 33879 11 669642 57876 2.0 14 7 1 2 27% 307052 56822 98%
c - 115.79  0 87 47 36492 10 700065 61882 2.0 14 7 1 2 27% 307052 56822 98%
c B 116.37  0 87 47 36708 10 703056 64695 2.0 14 7 1 2 27% 307052 56822 98%
c - 122.17  0 87 48 39154 10 731173 65252 2.0 15 7 1 2 27% 307052 56822 98%
c 
c  seconds   reductions    conflicts         size  tier2        variables
c          MB      restarts       redundant     glue  trail          remaining
c           level        rate          size/glue tier1  irredundant
c 
c } 122.61  0 87 48 39348 10 733235 67187 2.0 15 7 1 2 27% 307052 56822 98%
c [ 122.61  0 46 48 39348  2 733235 67187 2.1 41 19 2 7 25% 307052 56822 98%
c O 123.61  0 46 48 39352  2 741057 74809 2.2 40 19 2 7 25% 307052 56822 98%
c - 127.60  0 44 49 39361  2 762966 66557 2.1 39 19 2 7 24% 307052 56822 98%
c B 130.52  0 43 49 39362  2 780059 83226 2.1 38 19 2 7 24% 307052 56822 98%
c i 132.37  0 43 49 39362  2 791928 94737 2.1 38 19 2 7 24% 307052 56821 98%
c - 133.03  0 43 50 39362  2 795440 65058 2.1 38 19 2 7 24% 307043 56821 98%
c W 138.31  0 43 50 39363  2 820061 89077 2.0 39 19 2 7 24% 307043 56821 98%
c - 139.81  0 43 51 39363  2 828598 64892 2.0 39 19 2 7 24% 307043 56821 98%
c i 140.36  0 43 51 39363  2 832416 68612 2.1 39 19 2 7 24% 307043 56820 98%
c ] 140.69  0 43 51 39363  2 834465 70615 2.1 39 19 2 7 24% 307043 56820 98%
c { 140.69  0 87 51 39363 10 834465 70615 2.0 15 7 1 2 27% 307043 56820 98%
c W 145.69  0 86 51 41294 10 861062 95492 2.1 15 7 1 2 27% 307037 56820 98%
c - 146.03  0 86 52 41429 10 862442 68532 2.1 15 7 1 2 27% 307037 56820 98%
c - 152.35  0 85 53 44278 10 896969 73442 2.1 15 7 1 2 27% 307037 56820 98%
c F 153.38  0 85 53 44720  9 903063 79121 2.1 15 7 1 2 27% 307037 56820 98%
c - 158.78  0 85 54 47142  9 932181 77048 2.1 15 7 1 2 28% 307037 56820 98%
c B 161.55  0 84 54 48429  9 946069 90009 2.1 15 7 1 2 27% 307037 56820 98%
c } 161.65  0 84 54 48487  9 946554 90465 2.1 15 7 1 2 27% 307037 56820 98%
c [ 161.65  0 43 54 48487  2 946554 90465 2.1 39 19 2 7 24% 307037 56820 98%
c 
c  seconds   reductions    conflicts         size   tier2        variables
c          MB      restarts       redundant     glue   trail          remaining
c           level        rate          size/glue  tier1  irredundant
c 
c - 165.07  0 43 55 48487  2 968077 79209 2.3 41 18 2 7 24% 307037 56820 98%
c I 168.80  0 42 55 48487  2 990072 100670 2.5 43 17 2 7 24% 307037 56820 98%
c - 171.46  0 43 56 48494  2 1004657 78767 2.4 42 17 2 7 24% 307037 56820 98%
c B 177.59  0 41 56 48509  2 1035074 108565 2.4 43 18 2 7 24% 307037 56820 98%
c - 179.00  0 41 57 48512  2 1041924 77956 2.4 43 18 2 7 24% 307037 56820 98%
c ] 179.89  0 41 57 48516  2 1047498 83433 2.3 43 18 2 7 24% 307037 56820 98%
c ? 179.89  0 41 57 48516  2 1047498 83433 2.3 43 18 2 7 24% 307037 56820 98%
c 
c --- [ result ] -------------------------------------------------------------
c 
c writing result to '/private/tmp/p97-ordinal-sharesSecondAtTarget.sol'
c 
c --- [ run-time profiling ] -------------------------------------------------
c 
c process time taken by individual solving procedures
c (percentage relative to process time for solving)
c 
c       179.84  100.00% search
c        90.82   50.50% unstable
c        84.41   46.94% stable
c         4.60    2.56% walk
c         0.06    0.03% parse
c         0.00    0.00% lucky
c         0.00    0.00% simplify
c   =================================
c       179.84   99.97% solve
c 
c last line shows process time for solving
c (percentage relative to total process time)
c 
c --- [ statistics ] ---------------------------------------------------------
c 
c chronological:            457774        43.70 %  of conflicts
c conflicts:               1047498      5824.75    per second
c decisions:               6456748     35903.59    per second
c fixed:                      1228         2.12 %  of all variables
c learned:                  994493        94.94 %  per conflict
c learned_lits:           36775597       100.00 %  learned literals
c minimized:                     0         0.00 %  learned literals
c shrunken:                5014090        13.63 %  learned literals
c minishrunken:            4574628        12.44 %  learned literals
c otfs:                      16129         1.54 %  of conflict
c propagations:         2206523897        12.27 M  per second
c reduced:                  910733        86.94 %  per conflict
c rephased:                     45     23277.73    interval
c restarts:                  48516        21.59    interval
c stabilizing:                  12        50.07 %  of conflicts
c subsumed:                    424         0.03 %  of all clauses
c strengthened:              15917         1.22 %  of all clauses
c ticks:               10969665370         4.97    propagation
c walked:                       13     80576.77    interval
c 
c seconds are measured in process time for solving
c 
c --- [ glue usage ] ---------------------------------------------------------
c 
c focused glue 1 used 1028489 clauses 63.95% accumulated 63.95% tier1
c focused glue 2 used 267143 clauses 16.61% accumulated 80.56% tier2
c 
c stable glue 2 used 572188 clauses 12.94% accumulated 55.94% tier1
c stable glue 3 used 239075 clauses 5.410% accumulated 61.35%
c stable glue 4-5 used 422172 clauses 9.554% accumulated 70.90%
c stable glue 6 used 158640 clauses 3.590% accumulated 74.49%
c stable glue 7 used 129493 clauses 2.930% accumulated 77.42% tier2
c 
c 
c --- [ resources ] ----------------------------------------------------------
c 
c total process time since initialization:       179.89    seconds
c total real time since initialization:          180.01    seconds
c maximum resident set size of process:       336976.00    MB
c 
c --- [ shutting down ] ------------------------------------------------------
c 
c exit 0
